sat
(
  (define-fun VM1Type () Int
    341)
  (define-fun PriceProv2 () Int
    420)
  (define-fun PriceProv6 () Int
    532)
  (define-fun StorageProv5 () Int
    6001)
  (define-fun C5_VM3 () Int
    1)
  (define-fun MemProv6 () Int
    30000)
  (define-fun C1_VM5 () Int
    0)
  (define-fun C3_VM3 () Int
    0)
  (define-fun C4_VM6 () Int
    1)
  (define-fun StorageProv3 () Int
    2000)
  (define-fun StorageProv4 () Int
    2000)
  (define-fun C4_VM3 () Int
    0)
  (define-fun PriceProv3 () Int
    210)
  (define-fun PriceProv1 () Int
    210)
  (define-fun ProcProv5 () Int
    5)
  (define-fun C5_VM6 () Int
    0)
  (define-fun C3_VM1 () Int
    0)
  (define-fun StorageProv6 () Int
    2000)
  (define-fun PriceProv5 () Int
    0)
  (define-fun StorageProv1 () Int
    2000)
  (define-fun C4_VM5 () Int
    0)
  (define-fun ProcProv3 () Int
    4)
  (define-fun VM4Type () Int
    341)
  (define-fun C1_VM2 () Int
    0)
  (define-fun C5_VM2 () Int
    1)
  (define-fun C2_VM6 () Int
    0)
  (define-fun C5_VM5 () Int
    0)
  (define-fun VM5Type () Int
    0)
  (define-fun C1_VM3 () Int
    0)
  (define-fun MemProv2 () Int
    15000)
  (define-fun ProcProv4 () Int
    4)
  (define-fun MemProv5 () Int
    32001)
  (define-fun C3_VM4 () Int
    0)
  (define-fun C2_VM5 () Int
    0)
  (define-fun C2_VM2 () Int
    0)
  (define-fun C1_VM6 () Int
    0)
  (define-fun C3_VM6 () Int
    0)
  (define-fun MemProv1 () Int
    7500)
  (define-fun MemProv4 () Int
    7500)
  (define-fun MemProv3 () Int
    7500)
  (define-fun C2_VM3 () Int
    1)
  (define-fun VM3Type () Int
    341)
  (define-fun C4_VM1 () Int
    0)
  (define-fun VM2Type () Int
    278)
  (define-fun C3_VM2 () Int
    1)
  (define-fun C2_VM4 () Int
    1)
  (define-fun ProcProv1 () Int
    4)
  (define-fun ProcProv2 () Int
    8)
  (define-fun ProcProv6 () Int
    8)
  (define-fun C3_VM5 () Int
    0)
  (define-fun C5_VM1 () Int
    0)
  (define-fun C4_VM4 () Int
    0)
  (define-fun PriceProv4 () Int
    210)
  (define-fun StorageProv2 () Int
    2000)
  (define-fun C4_VM2 () Int
    0)
  (define-fun VM6Type () Int
    252)
  (define-fun C5_VM4 () Int
    1)
  (define-fun C1_VM4 () Int
    0)
  (define-fun C2_VM1 () Int
    0)
  (define-fun C1_VM1 () Int
    1)
)
(objectives
 ((+ 0 PriceProv1 PriceProv2 PriceProv3 PriceProv4 PriceProv5 PriceProv6) 1582)
)
(:added-eqs                   482953
 :arith-eq-adapter            109232
 :arith-bound-propagations-lp 6464849
 :arith-conflicts             719
 :arith-diseq                 3938502
 :arith-fixed-eqs             4158
 :arith-lower                 5788426
 :arith-make-feasible         121308
 :arith-max-columns           566
 :arith-max-rows              20
 :arith-upper                 2152437
 :binary-propagations         8012966
 :bv-bit2core                 34248
 :bv-dynamic-diseqs           3885672
 :bv-dynamic-eqs              2
 :bv->core-eq                 2552
 :conflicts                   10796
 :decisions                   380535
 :del-clause                  3947561
 :final-checks                181
 :max-memory                  98.92
 :memory                      92.18
 :minimized-lits              831243
 :mk-bool-var                 224276
 :mk-clause                   3948010
 :mk-clause-binary            14539
 :num-allocs                  9249039030.00
 :num-checks                  139
 :pb-conflicts                213
 :pb-predicates               18
 :pb-propagations             4821
 :pb-resolves                 199
 :propagations                18703267
 :restarts                    84
 :rlimit-count                110721154
 :solve-eqs-elim-vars         1
 :solve-eqs-steps             10
 :time                        7.59
 :total-time                  7.62)
